(set-logic QF_LIA)
(declare-fun x0 () Int)
(declare-fun x1 () Int)
(declare-fun x2 () Int)
(declare-fun x3 () Int)
(declare-fun x4 () Int)
(declare-fun x5 () Int)
(declare-fun x6 () Int)
(declare-fun x7 () Int)
(declare-fun x8 () Int)
(declare-fun x9 () Int)
(declare-fun A0 () Bool)
(declare-fun A1 () Bool)
(declare-fun A2 () Bool)
(declare-fun A3 () Bool)
(declare-fun A4 () Bool)
(declare-fun A5 () Bool)
(declare-fun A6 () Bool)
(declare-fun A7 () Bool)
(declare-fun A8 () Bool)
(declare-fun A9 () Bool)
(assert (let ((.def_0 (* 1 x4))) (let ((.def_1 (< .def_0 (- 1)))) (let ((.def_2 (not .def_1))) (let ((.def_3 (not A2))) (let ((.def_4 (or .def_3 .def_2))) (let ((.def_5 (not .def_4))) (let ((.def_6 (* (- 1) x2))) (let ((.def_7 (< .def_6 (- 1)))) (let ((.def_8 (not A0))) (let ((.def_9 (and .def_8 .def_7))) (let ((.def_10 (not .def_9))) (let ((.def_11 (and .def_10 .def_5))) (let ((.def_12 (not .def_11))) (let ((.def_13 (* (- 1) x0))) (let ((.def_14 (+ .def_13 .def_6))) (let ((.def_15 (< .def_14 1))) (let ((.def_16 (not .def_15))) (let ((.def_17 (and .def_16 A8))) (let ((.def_18 (not .def_17))) (let ((.def_19 (* 1 x0))) (let ((.def_20 (+ .def_0 .def_19))) (let ((.def_21 (< .def_20 (- 1)))) (let ((.def_22 (not .def_21))) (let ((.def_23 (and .def_22 A7))) (let ((.def_24 (not .def_23))) (let ((.def_25 (and .def_24 .def_18))) (let ((.def_26 (not .def_25))) (let ((.def_27 (or .def_26 .def_12))) (let ((.def_28 (not .def_27))) (let ((.def_29 (* (- 1) x9))) (let ((.def_30 (* 1 x5))) (let ((.def_31 (+ .def_30 .def_29))) (let ((.def_32 (< .def_31 1))) (let ((.def_33 (not .def_32))) (let ((.def_34 (or .def_33 A6))) (let ((.def_35 (not .def_34))) (let ((.def_36 (* (- 1) x3))) (let ((.def_37 (< .def_36 1))) (let ((.def_38 (not .def_37))) (let ((.def_39 (or .def_38 A6))) (let ((.def_40 (and .def_39 .def_35))) (let ((.def_41 (not .def_40))) (let ((.def_42 (* 1 x6))) (let ((.def_43 (< .def_42 1))) (let ((.def_44 (not .def_43))) (let ((.def_45 (not A9))) (let ((.def_46 (or .def_45 .def_44))) (let ((.def_47 (* (- 1) x8))) (let ((.def_48 (+ .def_47 .def_30))) (let ((.def_49 (< .def_48 (- 1)))) (let ((.def_50 (not .def_49))) (let ((.def_51 (and .def_50 A9))) (let ((.def_52 (not .def_51))) (let ((.def_53 (or .def_52 .def_46))) (let ((.def_54 (or .def_53 .def_41))) (let ((.def_55 (or .def_54 .def_28))) (let ((.def_56 (not .def_55))) (let ((.def_57 (not A5))) (let ((.def_58 (and .def_57 A8))) (let ((.def_59 (* (- 1) x4))) (let ((.def_60 (< .def_59 1))) (let ((.def_61 (or A8 .def_60))) (let ((.def_62 (and .def_61 .def_58))) (let ((.def_63 (< .def_19 (- 1)))) (let ((.def_64 (or .def_3 .def_63))) (let ((.def_65 (* 1 x2))) (let ((.def_66 (< .def_65 (- 1)))) (let ((.def_67 (or A2 .def_66))) (let ((.def_68 (not .def_67))) (let ((.def_69 (or .def_68 .def_64))) (let ((.def_70 (and .def_69 .def_62))) (let ((.def_71 (and A5 A3))) (let ((.def_72 (not .def_71))) (let ((.def_73 (not A3))) (let ((.def_74 (< .def_59 (- 1)))) (let ((.def_75 (and .def_74 .def_73))) (let ((.def_76 (not .def_75))) (let ((.def_77 (and .def_76 .def_72))) (let ((.def_78 (not .def_77))) (let ((.def_79 (* (- 1) x5))) (let ((.def_80 (* 1 x8))) (let ((.def_81 (+ .def_80 .def_79))) (let ((.def_82 (< .def_81 (- 1)))) (let ((.def_83 (and A5 .def_82))) (let ((.def_84 (* (- 1) x6))) (let ((.def_85 (+ .def_29 .def_84))) (let ((.def_86 (< .def_85 1))) (let ((.def_87 (not .def_86))) (let ((.def_88 (or .def_3 .def_87))) (let ((.def_89 (or .def_88 .def_83))) (let ((.def_90 (or .def_89 .def_78))) (let ((.def_91 (not .def_90))) (let ((.def_92 (and .def_91 .def_70))) (let ((.def_93 (not .def_92))) (let ((.def_94 (and .def_93 .def_56))) (let ((.def_95 (+ .def_84 .def_36))) (let ((.def_96 (< .def_95 1))) (let ((.def_97 (not .def_96))) (let ((.def_98 (not A8))) (let ((.def_99 (and .def_98 .def_97))) (let ((.def_100 (not .def_99))) (let ((.def_101 (not A7))) (let ((.def_102 (* 1 x3))) (let ((.def_103 (< .def_102 1))) (let ((.def_104 (not .def_103))) (let ((.def_105 (and .def_104 .def_101))) (let ((.def_106 (not .def_105))) (let ((.def_107 (and .def_106 .def_100))) (let ((.def_108 (not .def_107))) (let ((.def_109 (< .def_19 1))) (let ((.def_110 (or .def_3 .def_109))) (let ((.def_111 (not .def_110))) (let ((.def_112 (+ .def_102 .def_79))) (let ((.def_113 (< .def_112 (- 1)))) (let ((.def_114 (not .def_113))) (let ((.def_115 (+ .def_79 .def_59))) (let ((.def_116 (< .def_115 (- 1)))) (let ((.def_117 (not .def_116))) (let ((.def_118 (and .def_117 .def_114))) (let ((.def_119 (and .def_118 .def_111))) (let ((.def_120 (not .def_119))) (let ((.def_121 (or .def_120 .def_108))) (let ((.def_122 (* 1 x1))) (let ((.def_123 (< .def_122 1))) (let ((.def_124 (not .def_123))) (let ((.def_125 (or A2 .def_124))) (let ((.def_126 (not .def_125))) (let ((.def_127 (not A4))) (let ((.def_128 (and .def_127 A9))) (let ((.def_129 (not .def_128))) (let ((.def_130 (and .def_129 .def_126))) (let ((.def_131 (not .def_130))) (let ((.def_132 (not A6))) (let ((.def_133 (< .def_47 1))) (let ((.def_134 (or .def_133 .def_132))) (let ((.def_135 (not .def_134))) (let ((.def_136 (+ .def_102 .def_59))) (let ((.def_137 (< .def_136 1))) (let ((.def_138 (not .def_137))) (let ((.def_139 (or .def_138 A7))) (let ((.def_140 (and .def_139 .def_135))) (let ((.def_141 (not .def_140))) (let ((.def_142 (or .def_141 .def_131))) (let ((.def_143 (or .def_142 .def_121))) (let ((.def_144 (+ .def_102 .def_47))) (let ((.def_145 (< .def_144 (- 1)))) (let ((.def_146 (< .def_84 1))) (let ((.def_147 (and .def_146 .def_145))) (let ((.def_148 (not .def_147))) (let ((.def_149 (not .def_133))) (let ((.def_150 (and A3 .def_149))) (let ((.def_151 (and .def_150 .def_148))) (let ((.def_152 (not .def_151))) (let ((.def_153 (* 1 x9))) (let ((.def_154 (+ .def_59 .def_153))) (let ((.def_155 (< .def_154 (- 1)))) (let ((.def_156 (not .def_155))) (let ((.def_157 (+ .def_13 .def_79))) (let ((.def_158 (< .def_157 (- 1)))) (let ((.def_159 (or .def_158 .def_156))) (let ((.def_160 (and .def_101 .def_73))) (let ((.def_161 (not .def_160))) (let ((.def_162 (or .def_161 .def_159))) (let ((.def_163 (not .def_162))) (let ((.def_164 (or .def_163 .def_152))) (let ((.def_165 (< .def_42 (- 1)))) (let ((.def_166 (not .def_165))) (let ((.def_167 (or .def_44 .def_166))) (let ((.def_168 (not .def_167))) (let ((.def_169 (and .def_132 .def_73))) (let ((.def_170 (not .def_169))) (let ((.def_171 (and .def_170 .def_168))) (let ((.def_172 (not .def_171))) (let ((.def_173 (+ .def_6 .def_122))) (let ((.def_174 (< .def_173 (- 1)))) (let ((.def_175 (and .def_174 .def_101))) (let ((.def_176 (< .def_102 (- 1)))) (let ((.def_177 (not .def_176))) (let ((.def_178 (and .def_177 A7))) (let ((.def_179 (not .def_178))) (let ((.def_180 (and .def_179 .def_175))) (let ((.def_181 (or .def_180 .def_172))) (let ((.def_182 (and .def_181 .def_164))) (let ((.def_183 (not .def_182))) (let ((.def_184 (or .def_183 .def_143))) (let ((.def_185 (not .def_184))) (let ((.def_186 (or .def_185 .def_94))) (let ((.def_187 (< .def_65 1))) (let ((.def_188 (not .def_187))) (let ((.def_189 (and .def_44 .def_188))) (let ((.def_190 (not .def_189))) (let ((.def_191 (* (- 1) x7))) (let ((.def_192 (+ .def_80 .def_191))) (let ((.def_193 (< .def_192 1))) (let ((.def_194 (< .def_30 1))) (let ((.def_195 (not .def_194))) (let ((.def_196 (or .def_195 .def_193))) (let ((.def_197 (and .def_196 .def_190))) (let ((.def_198 (not .def_197))) (let ((.def_199 (< .def_84 (- 1)))) (let ((.def_200 (not .def_199))) (let ((.def_201 (or .def_200 A8))) (let ((.def_202 (not .def_201))) (let ((.def_203 (< .def_29 (- 1)))) (let ((.def_204 (or .def_203 .def_57))) (let ((.def_205 (not .def_204))) (let ((.def_206 (or .def_205 .def_202))) (let ((.def_207 (not .def_206))) (let ((.def_208 (= .def_207 .def_198))) (let ((.def_209 (not .def_208))) (let ((.def_210 (< .def_153 (- 1)))) (let ((.def_211 (not .def_210))) (let ((.def_212 (not A1))) (let ((.def_213 (or .def_212 .def_211))) (let ((.def_214 (and .def_98 A3))) (let ((.def_215 (not .def_214))) (let ((.def_216 (and .def_215 .def_213))) (let ((.def_217 (< .def_191 1))) (let ((.def_218 (= .def_38 .def_217))) (let ((.def_219 (* 1 x7))) (let ((.def_220 (< .def_219 (- 1)))) (let ((.def_221 (not .def_220))) (let ((.def_222 (and .def_221 .def_165))) (let ((.def_223 (or .def_222 .def_218))) (let ((.def_224 (not .def_223))) (let ((.def_225 (and .def_224 .def_216))) (let ((.def_226 (and .def_225 .def_209))) (let ((.def_227 (not .def_226))) (let ((.def_228 (and .def_101 A6))) (let ((.def_229 (< .def_13 (- 1)))) (let ((.def_230 (or .def_229 A7))) (let ((.def_231 (not .def_230))) (let ((.def_232 (or .def_231 .def_228))) (let ((.def_233 (or A5 .def_176))) (let ((.def_234 (not .def_233))) (let ((.def_235 (and A0 .def_60))) (let ((.def_236 (not .def_235))) (let ((.def_237 (and .def_236 .def_234))) (let ((.def_238 (not .def_237))) (let ((.def_239 (or .def_238 .def_232))) (let ((.def_240 (or .def_63 A3))) (let ((.def_241 (+ .def_29 .def_80))) (let ((.def_242 (< .def_241 (- 1)))) (let ((.def_243 (not .def_242))) (let ((.def_244 (and .def_243 A1))) (let ((.def_245 (not .def_244))) (let ((.def_246 (or .def_245 .def_240))) (let ((.def_247 (+ .def_191 .def_30))) (let ((.def_248 (< .def_247 (- 1)))) (let ((.def_249 (not .def_248))) (let ((.def_250 (and .def_249 A7))) (let ((.def_251 (and A8 .def_212))) (let ((.def_252 (and .def_251 .def_250))) (let ((.def_253 (not .def_252))) (let ((.def_254 (or .def_253 .def_246))) (let ((.def_255 (not .def_254))) (let ((.def_256 (and .def_255 .def_239))) (let ((.def_257 (not .def_256))) (let ((.def_258 (and .def_257 .def_227))) (let ((.def_259 (< .def_30 (- 1)))) (let ((.def_260 (or .def_259 .def_127))) (let ((.def_261 (or .def_98 .def_8))) (let ((.def_262 (= .def_261 .def_260))) (let ((.def_263 (not .def_262))) (let ((.def_264 (or .def_123 .def_8))) (let ((.def_265 (+ .def_29 .def_6))) (let ((.def_266 (< .def_265 1))) (let ((.def_267 (and A7 .def_266))) (let ((.def_268 (not .def_267))) (let ((.def_269 (or .def_268 .def_264))) (let ((.def_270 (and .def_269 .def_263))) (let ((.def_271 (+ .def_59 .def_30))) (let ((.def_272 (< .def_271 1))) (let ((.def_273 (not .def_272))) (let ((.def_274 (or .def_273 .def_212))) (let ((.def_275 (not .def_274))) (let ((.def_276 (< .def_0 1))) (let ((.def_277 (and .def_276 .def_127))) (let ((.def_278 (not .def_277))) (let ((.def_279 (and .def_278 .def_275))) (let ((.def_280 (not .def_279))) (let ((.def_281 (+ .def_36 .def_122))) (let ((.def_282 (< .def_281 (- 1)))) (let ((.def_283 (and .def_282 .def_124))) (let ((.def_284 (not .def_283))) (let ((.def_285 (* (- 1) x1))) (let ((.def_286 (+ .def_0 .def_285))) (let ((.def_287 (< .def_286 1))) (let ((.def_288 (+ .def_29 .def_36))) (let ((.def_289 (< .def_288 (- 1)))) (let ((.def_290 (not .def_289))) (let ((.def_291 (= .def_290 .def_287))) (let ((.def_292 (not .def_291))) (let ((.def_293 (or .def_292 .def_284))) (let ((.def_294 (or .def_293 .def_280))) (let ((.def_295 (or .def_294 .def_270))) (let ((.def_296 (not .def_7))) (let ((.def_297 (+ .def_19 .def_80))) (let ((.def_298 (< .def_297 1))) (let ((.def_299 (or .def_298 .def_296))) (let ((.def_300 (not .def_299))) (let ((.def_301 (+ .def_65 .def_285))) (let ((.def_302 (< .def_301 1))) (let ((.def_303 (not .def_302))) (let ((.def_304 (or .def_303 .def_101))) (let ((.def_305 (not .def_304))) (let ((.def_306 (or .def_305 .def_300))) (let ((.def_307 (and A8 .def_132))) (let ((.def_308 (not .def_307))) (let ((.def_309 (+ .def_285 .def_29))) (let ((.def_310 (< .def_309 1))) (let ((.def_311 (not .def_310))) (let ((.def_312 (+ .def_42 .def_79))) (let ((.def_313 (< .def_312 (- 1)))) (let ((.def_314 (= .def_313 .def_311))) (let ((.def_315 (or .def_314 .def_308))) (let ((.def_316 (and .def_315 .def_306))) (let ((.def_317 (+ .def_36 .def_219))) (let ((.def_318 (< .def_317 (- 1)))) (let ((.def_319 (not .def_318))) (let ((.def_320 (or .def_319 A5))) (let ((.def_321 (or A6 .def_50))) (let ((.def_322 (and .def_321 .def_320))) (let ((.def_323 (not .def_322))) (let ((.def_324 (< .def_144 1))) (let ((.def_325 (+ .def_80 .def_36))) (let ((.def_326 (< .def_325 (- 1)))) (let ((.def_327 (and .def_326 .def_324))) (let ((.def_328 (not .def_327))) (let ((.def_329 (and .def_98 .def_124))) (let ((.def_330 (or .def_329 .def_328))) (let ((.def_331 (or .def_330 .def_323))) (let ((.def_332 (or .def_331 .def_316))) (let ((.def_333 (or .def_332 .def_295))) (let ((.def_334 (or .def_333 .def_258))) (let ((.def_335 (and .def_334 .def_186))) (let ((.def_336 (not .def_335))) (let ((.def_337 (or .def_98 .def_276))) (let ((.def_338 (+ .def_219 .def_42))) (let ((.def_339 (< .def_338 1))) (let ((.def_340 (or A9 .def_339))) (let ((.def_341 (or .def_340 .def_337))) (let ((.def_342 (+ .def_122 .def_65))) (let ((.def_343 (< .def_342 (- 1)))) (let ((.def_344 (not .def_343))) (let ((.def_345 (or .def_344 .def_127))) (let ((.def_346 (+ .def_122 .def_59))) (let ((.def_347 (< .def_346 (- 1)))) (let ((.def_348 (= .def_347 .def_37))) (let ((.def_349 (not .def_348))) (let ((.def_350 (or .def_349 .def_345))) (let ((.def_351 (and .def_350 .def_341))) (let ((.def_352 (not .def_351))) (let ((.def_353 (< .def_285 (- 1)))) (let ((.def_354 (not .def_353))) (let ((.def_355 (and .def_74 .def_354))) (let ((.def_356 (not .def_355))) (let ((.def_357 (or A5 A2))) (let ((.def_358 (or .def_357 .def_356))) (let ((.def_359 (and .def_73 A3))) (let ((.def_360 (not .def_359))) (let ((.def_361 (+ .def_47 .def_153))) (let ((.def_362 (< .def_361 (- 1)))) (let ((.def_363 (not .def_362))) (let ((.def_364 (and .def_221 .def_363))) (let ((.def_365 (= .def_364 .def_360))) (let ((.def_366 (not .def_365))) (let ((.def_367 (and .def_366 .def_358))) (let ((.def_368 (not .def_367))) (let ((.def_369 (or .def_368 .def_352))) (let ((.def_370 (or A0 A5))) (let ((.def_371 (not .def_370))) (let ((.def_372 (+ .def_47 .def_122))) (let ((.def_373 (< .def_372 (- 1)))) (let ((.def_374 (or .def_373 A0))) (let ((.def_375 (not .def_374))) (let ((.def_376 (or .def_375 .def_371))) (let ((.def_377 (< .def_219 1))) (let ((.def_378 (< .def_372 1))) (let ((.def_379 (and .def_378 .def_377))) (let ((.def_380 (not .def_379))) (let ((.def_381 (+ .def_59 .def_29))) (let ((.def_382 (< .def_381 (- 1)))) (let ((.def_383 (not .def_382))) (let ((.def_384 (+ .def_47 .def_59))) (let ((.def_385 (< .def_384 (- 1)))) (let ((.def_386 (not .def_385))) (let ((.def_387 (and .def_386 .def_383))) (let ((.def_388 (and .def_387 .def_380))) (let ((.def_389 (and .def_388 .def_376))) (let ((.def_390 (not .def_389))) (let ((.def_391 (or .def_98 A7))) (let ((.def_392 (+ .def_59 .def_219))) (let ((.def_393 (< .def_392 (- 1)))) (let ((.def_394 (not .def_393))) (let ((.def_395 (or A4 .def_394))) (let ((.def_396 (and .def_395 .def_391))) (let ((.def_397 (and A1 .def_127))) (let ((.def_398 (not .def_397))) (let ((.def_399 (< .def_47 (- 1)))) (let ((.def_400 (not .def_399))) (let ((.def_401 (= .def_3 .def_400))) (let ((.def_402 (not .def_401))) (let ((.def_403 (or .def_402 .def_398))) (let ((.def_404 (or .def_403 .def_396))) (let ((.def_405 (not .def_404))) (let ((.def_406 (= .def_405 .def_390))) (let ((.def_407 (and .def_406 .def_369))) (let ((.def_408 (or A4 A5))) (let ((.def_409 (+ .def_6 .def_79))) (let ((.def_410 (< .def_409 (- 1)))) (let ((.def_411 (and .def_410 .def_132))) (let ((.def_412 (not .def_411))) (let ((.def_413 (and .def_412 .def_408))) (let ((.def_414 (not .def_60))) (let ((.def_415 (and .def_414 .def_199))) (let ((.def_416 (< .def_191 (- 1)))) (let ((.def_417 (not .def_416))) (let ((.def_418 (or .def_98 .def_417))) (let ((.def_419 (not .def_418))) (let ((.def_420 (= .def_419 .def_415))) (let ((.def_421 (or .def_420 .def_413))) (let ((.def_422 (and A5 .def_127))) (let ((.def_423 (+ .def_122 .def_80))) (let ((.def_424 (< .def_423 (- 1)))) (let ((.def_425 (+ .def_19 .def_42))) (let ((.def_426 (< .def_425 (- 1)))) (let ((.def_427 (not .def_426))) (let ((.def_428 (and .def_427 .def_424))) (let ((.def_429 (not .def_428))) (let ((.def_430 (or .def_429 .def_422))) (let ((.def_431 (or .def_416 A6))) (let ((.def_432 (not .def_431))) (let ((.def_433 (+ .def_42 .def_65))) (let ((.def_434 (< .def_433 (- 1)))) (let ((.def_435 (and .def_45 .def_434))) (let ((.def_436 (and .def_435 .def_432))) (let ((.def_437 (not .def_436))) (let ((.def_438 (and .def_437 .def_430))) (let ((.def_439 (and .def_438 .def_421))) (let ((.def_440 (or .def_400 A9))) (let ((.def_441 (not .def_440))) (let ((.def_442 (and .def_57 .def_212))) (let ((.def_443 (not .def_442))) (let ((.def_444 (or .def_443 .def_441))) (let ((.def_445 (not .def_444))) (let ((.def_446 (+ .def_65 .def_36))) (let ((.def_447 (< .def_446 1))) (let ((.def_448 (not .def_447))) (let ((.def_449 (or .def_448 .def_212))) (let ((.def_450 (not .def_449))) (let ((.def_451 (= .def_98 .def_210))) (let ((.def_452 (not .def_451))) (let ((.def_453 (or .def_452 .def_450))) (let ((.def_454 (= .def_453 .def_445))) (let ((.def_455 (not .def_454))) (let ((.def_456 (+ .def_36 .def_80))) (let ((.def_457 (< .def_456 (- 1)))) (let ((.def_458 (not .def_457))) (let ((.def_459 (or .def_458 A5))) (let ((.def_460 (not .def_459))) (let ((.def_461 (< .def_36 (- 1)))) (let ((.def_462 (not .def_461))) (let ((.def_463 (or .def_462 .def_229))) (let ((.def_464 (not .def_463))) (let ((.def_465 (and .def_464 .def_460))) (let ((.def_466 (not .def_465))) (let ((.def_467 (+ .def_36 .def_65))) (let ((.def_468 (< .def_467 1))) (let ((.def_469 (and .def_468 A1))) (let ((.def_470 (+ .def_13 .def_29))) (let ((.def_471 (< .def_470 (- 1)))) (let ((.def_472 (not .def_377))) (let ((.def_473 (or .def_472 .def_471))) (let ((.def_474 (not .def_473))) (let ((.def_475 (and .def_474 .def_469))) (let ((.def_476 (not .def_475))) (let ((.def_477 (= .def_476 .def_466))) (let ((.def_478 (not .def_477))) (let ((.def_479 (and .def_478 .def_455))) (let ((.def_480 (not .def_479))) (let ((.def_481 (and .def_480 .def_439))) (let ((.def_482 (and .def_481 .def_407))) (let ((.def_483 (= A9 A6))) (let ((.def_484 (not .def_483))) (let ((.def_485 (+ .def_219 .def_153))) (let ((.def_486 (< .def_485 1))) (let ((.def_487 (and .def_486 .def_66))) (let ((.def_488 (or .def_487 .def_484))) (let ((.def_489 (not .def_488))) (let ((.def_490 (and .def_3 A5))) (let ((.def_491 (or .def_3 A9))) (let ((.def_492 (and .def_491 .def_490))) (let ((.def_493 (and .def_492 .def_489))) (let ((.def_494 (or .def_195 .def_462))) (let ((.def_495 (not .def_494))) (let ((.def_496 (or A5 .def_66))) (let ((.def_497 (not .def_496))) (let ((.def_498 (or .def_497 .def_495))) (let ((.def_499 (+ .def_30 .def_47))) (let ((.def_500 (< .def_499 (- 1)))) (let ((.def_501 (+ .def_13 .def_84))) (let ((.def_502 (< .def_501 (- 1)))) (let ((.def_503 (not .def_502))) (let ((.def_504 (and .def_503 .def_500))) (let ((.def_505 (not .def_504))) (let ((.def_506 (+ .def_36 .def_84))) (let ((.def_507 (< .def_506 1))) (let ((.def_508 (= A3 .def_507))) (let ((.def_509 (not .def_508))) (let ((.def_510 (and .def_509 .def_505))) (let ((.def_511 (not .def_510))) (let ((.def_512 (and .def_511 .def_498))) (let ((.def_513 (and .def_512 .def_493))) (let ((.def_514 (not .def_513))) (let ((.def_515 (or A6 .def_394))) (let ((.def_516 (not .def_515))) (let ((.def_517 (and .def_37 .def_212))) (let ((.def_518 (not .def_517))) (let ((.def_519 (and .def_518 .def_516))) (let ((.def_520 (not .def_519))) (let ((.def_521 (and .def_3 .def_416))) (let ((.def_522 (< .def_80 (- 1)))) (let ((.def_523 (not .def_522))) (let ((.def_524 (+ .def_84 .def_6))) (let ((.def_525 (< .def_524 1))) (let ((.def_526 (and .def_525 .def_523))) (let ((.def_527 (not .def_526))) (let ((.def_528 (or .def_527 .def_521))) (let ((.def_529 (not .def_528))) (let ((.def_530 (and .def_529 .def_520))) (let ((.def_531 (not .def_530))) (let ((.def_532 (+ .def_79 .def_13))) (let ((.def_533 (< .def_532 (- 1)))) (let ((.def_534 (not .def_533))) (let ((.def_535 (= .def_534 .def_98))) (let ((.def_536 (not .def_535))) (let ((.def_537 (and A3 A5))) (let ((.def_538 (and .def_537 .def_536))) (let ((.def_539 (not .def_538))) (let ((.def_540 (< .def_157 1))) (let ((.def_541 (not .def_540))) (let ((.def_542 (+ .def_0 .def_30))) (let ((.def_543 (< .def_542 (- 1)))) (let ((.def_544 (not .def_543))) (let ((.def_545 (and .def_544 .def_541))) (let ((.def_546 (and .def_132 A1))) (let ((.def_547 (and .def_546 .def_545))) (let ((.def_548 (not .def_547))) (let ((.def_549 (and .def_548 .def_539))) (let ((.def_550 (not .def_549))) (let ((.def_551 (and .def_550 .def_531))) (let ((.def_552 (or .def_551 .def_514))) (let ((.def_553 (< .def_29 1))) (let ((.def_554 (not .def_553))) (let ((.def_555 (or .def_554 .def_259))) (let ((.def_556 (not .def_555))) (let ((.def_557 (+ .def_47 .def_65))) (let ((.def_558 (< .def_557 (- 1)))) (let ((.def_559 (not .def_558))) (let ((.def_560 (not .def_146))) (let ((.def_561 (and .def_560 .def_559))) (let ((.def_562 (not .def_561))) (let ((.def_563 (= .def_562 .def_556))) (let ((.def_564 (not .def_109))) (let ((.def_565 (+ .def_191 .def_29))) (let ((.def_566 (< .def_565 1))) (let ((.def_567 (not .def_566))) (let ((.def_568 (= .def_567 .def_564))) (let ((.def_569 (or .def_553 A4))) (let ((.def_570 (not .def_569))) (let ((.def_571 (and .def_570 .def_568))) (let ((.def_572 (not .def_571))) (let ((.def_573 (and .def_572 .def_563))) (let ((.def_574 (+ .def_285 .def_30))) (let ((.def_575 (< .def_574 (- 1)))) (let ((.def_576 (= .def_575 .def_57))) (let ((.def_577 (+ .def_65 .def_47))) (let ((.def_578 (< .def_577 1))) (let ((.def_579 (not .def_578))) (let ((.def_580 (or .def_579 .def_73))) (let ((.def_581 (or .def_580 .def_576))) (let ((.def_582 (not .def_581))) (let ((.def_583 (+ .def_19 .def_65))) (let ((.def_584 (< .def_583 (- 1)))) (let ((.def_585 (not .def_584))) (let ((.def_586 (and .def_585 .def_8))) (let ((.def_587 (not .def_586))) (let ((.def_588 (and A7 .def_220))) (let ((.def_589 (not .def_588))) (let ((.def_590 (or .def_589 .def_587))) (let ((.def_591 (not .def_590))) (let ((.def_592 (or .def_591 .def_582))) (let ((.def_593 (not .def_592))) (let ((.def_594 (and .def_593 .def_573))) (let ((.def_595 (= .def_8 .def_554))) (let ((.def_596 (= A4 .def_354))) (let ((.def_597 (or .def_596 .def_595))) (let ((.def_598 (or .def_146 .def_3))) (let ((.def_599 (or A8 .def_127))) (let ((.def_600 (or .def_599 .def_598))) (let ((.def_601 (or .def_600 .def_597))) (let ((.def_602 (+ .def_80 .def_6))) (let ((.def_603 (< .def_602 1))) (let ((.def_604 (and .def_603 .def_73))) (let ((.def_605 (not .def_604))) (let ((.def_606 (or .def_45 .def_212))) (let ((.def_607 (not .def_606))) (let ((.def_608 (and .def_607 .def_605))) (let ((.def_609 (or .def_3 .def_553))) (let ((.def_610 (not .def_609))) (let ((.def_611 (+ .def_0 .def_191))) (let ((.def_612 (< .def_611 1))) (let ((.def_613 (not .def_612))) (let ((.def_614 (and .def_101 .def_613))) (let ((.def_615 (and .def_614 .def_610))) (let ((.def_616 (not .def_615))) (let ((.def_617 (and .def_616 .def_608))) (let ((.def_618 (not .def_617))) (let ((.def_619 (or .def_618 .def_601))) (let ((.def_620 (and .def_619 .def_594))) (let ((.def_621 (not .def_620))) (let ((.def_622 (= .def_621 .def_552))) (let ((.def_623 (and .def_622 .def_482))) (let ((.def_624 (and .def_623 .def_336))) (let ((.def_625 (not .def_624))) (let ((.def_626 (<= x9 1))) (let ((.def_627 (<= 0 x9))) (let ((.def_628 (<= x8 1))) (let ((.def_629 (<= 0 x8))) (let ((.def_630 (<= x7 1))) (let ((.def_631 (<= 0 x7))) (let ((.def_632 (<= x6 1))) (let ((.def_633 (<= 0 x6))) (let ((.def_634 (<= x5 1))) (let ((.def_635 (<= 0 x5))) (let ((.def_636 (<= x4 1))) (let ((.def_637 (<= 0 x4))) (let ((.def_638 (<= x3 1))) (let ((.def_639 (<= 0 x3))) (let ((.def_640 (<= x2 1))) (let ((.def_641 (<= 0 x2))) (let ((.def_642 (<= x1 1))) (let ((.def_643 (<= 0 x1))) (let ((.def_644 (<= x0 1))) (let ((.def_645 (<= 0 x0))) (let ((.def_646 (and .def_645 .def_644 .def_643 .def_642 .def_641 .def_640 .def_639 .def_638 .def_637 .def_636 .def_635 .def_634 .def_633 .def_632 .def_631 .def_630 .def_629 .def_628 .def_627 .def_626 .def_625))) .def_646))))))))))))))))))))))))))))))))))))))))))))))))))))))))))))))))))))))))))))))))))))))))))))))))))))))))))))))))))))))))))))))))))))))))))))))))))))))))))))))))))))))))))))))))))))))))))))))))))))))))))))))))))))))))))))))))))))))))))))))))))))))))))))))))))))))))))))))))))))))))))))))))))))))))))))))))))))))))))))))))))))))))))))))))))))))))))))))))))))))))))))))))))))))))))))))))))))))))))))))))))))))))))))))))))))))))))))))))))))))))))))))))))))))))))))))))))))))))))))))))))))))))))))))))))))))))))))))))))))))))))))))))))))))))))))))))))))))))))))))))))))))))))))))))))))))))))))))))))))))))))))))))))))))))))))))))))))))))))))))))))))))))
(check-sat)
